(set-logic ALL)
(declare-const k Int)
(declare-fun s () (_ BitVec k))
(declare-fun t () (_ BitVec k))
(assert (distinct (distinct s (bvurem t (bvand s (_ bv1 k)))) (distinct s (bvsub t (bvand s (_ bv1 k))))))
(check-sat)
